(set-info :smt-lib-version 2.6)
(set-logic QF_NIA)
(set-info :source |
Generated by: Cristina Borralleras, Daniel Larraz, Albert Oliveras, Enric Rodriguez-Carbonell, Albert Rubio
Generated on: 2017-04-27
Generator: VeryMax
Application: Termination proving
Target solver: barcelogic
|)
(set-info :license "https://creativecommons.org/licenses/by/4.0/")
(set-info :category "industrial")
(set-info :status unsat)
(declare-fun Nl2main_i1 () Int)
(declare-fun Nl2main_j1 () Int)
(declare-fun lam0n1 () Int)
(declare-fun Nl2CT1 () Int)
(declare-fun lam0n0 () Int)
(declare-fun lam1n1 () Int)
(declare-fun lam1n0 () Int)
(declare-fun lam2n1 () Int)
(declare-fun lam2n0 () Int)
(declare-fun lam3n1 () Int)
(declare-fun lam3n0 () Int)
(declare-fun lam4n0 () Int)
(declare-fun lam4n1 () Int)
(declare-fun main_i () Int)
(declare-fun main_j () Int)
(declare-fun lam8n0 () Int)
(declare-fun lam8n1 () Int)
(declare-fun lam8n2 () Int)
(declare-fun lam8n4 () Int)
(declare-fun RFN1_CT () Int)
(declare-fun RFN1_main_i () Int)
(declare-fun RFN1_main_j () Int)
(declare-fun lam8n3 () Int)
(declare-fun lam12n0 () Int)
(declare-fun lam12n1 () Int)
(declare-fun lam12n2 () Int)
(declare-fun lam12n4 () Int)
(declare-fun lam12n3 () Int)
(declare-fun lam6n0 () Int)
(declare-fun lam6n1 () Int)
(declare-fun lam6n2 () Int)
(declare-fun lam6n4 () Int)
(declare-fun lam6n3 () Int)
(declare-fun lam7n0 () Int)
(declare-fun lam7n1 () Int)
(declare-fun lam7n2 () Int)
(declare-fun lam7n4 () Int)
(declare-fun lam7n3 () Int)
(declare-fun lam10n0 () Int)
(declare-fun lam10n1 () Int)
(declare-fun lam10n2 () Int)
(declare-fun lam10n4 () Int)
(declare-fun lam10n3 () Int)
(declare-fun lam11n0 () Int)
(declare-fun lam11n1 () Int)
(declare-fun lam11n2 () Int)
(declare-fun lam11n4 () Int)
(declare-fun lam11n3 () Int)
(declare-fun lam5n0 () Int)
(declare-fun lam5n1 () Int)
(declare-fun lam5n2 () Int)
(declare-fun lam5n4 () Int)
(declare-fun lam5n3 () Int)
(declare-fun lam9n0 () Int)
(declare-fun lam9n1 () Int)
(declare-fun lam9n2 () Int)
(declare-fun lam9n4 () Int)
(declare-fun lam9n3 () Int)
(assert ( and ( <= ( - 2 ) Nl2main_i1 ) ( <= Nl2main_i1 2 ) ( <= ( - 2 ) Nl2main_j1 ) ( <= Nl2main_j1 2 ) ))
(assert ( or ( and ( >= lam0n1 0 ) ( > ( + ( * Nl2CT1 lam0n1 ) ( - 1 ) ) 0 ) ( = ( + ( * 1 lam0n0 ) ( * Nl2main_i1 lam0n1 ) ) 0 ) ( = ( + ( * ( - 1 ) lam0n0 ) ( * Nl2main_j1 lam0n1 ) ) 0 ) ) ( and ( >= lam1n1 0 ) ( > ( + ( * Nl2CT1 lam1n1 ) ( - 1 ( + ( + Nl2CT1 ( * Nl2main_i1 1 ) ) ( * Nl2main_j1 2 ) ) ) ) 0 ) ( = ( + ( * 1 lam1n0 ) ( * Nl2main_i1 lam1n1 ) ( - ( + 0 ( * Nl2main_i1 1 ) ) ) ) 0 ) ( = ( + ( * ( - 1 ) lam1n0 ) ( * Nl2main_j1 lam1n1 ) ( - ( + 0 ( * Nl2main_j1 1 ) ) ) ) 0 ) ) ))
(assert ( or ( and ( >= lam2n1 0 ) ( > ( + ( * 1 lam2n0 ) ( * Nl2CT1 lam2n1 ) ( - 1 ) ) 0 ) ( = ( + ( * 1 lam2n0 ) ( * Nl2main_i1 lam2n1 ) ) 0 ) ( = ( + ( * ( - 1 ) lam2n0 ) ( * Nl2main_j1 lam2n1 ) ) 0 ) ) ( and ( >= lam3n1 0 ) ( > ( + ( * 1 lam3n0 ) ( * Nl2CT1 lam3n1 ) ( - 1 ( + Nl2CT1 ( * Nl2main_i1 1 ) ) ) ) 0 ) ( = ( + ( * 1 lam3n0 ) ( * Nl2main_i1 lam3n1 ) ( - ( + 0 ( * Nl2main_i1 1 ) ) ) ) 0 ) ( = ( + ( * ( - 1 ) lam3n0 ) ( * Nl2main_j1 lam3n1 ) ( - ( + 0 Nl2main_j1 ) ) ) 0 ) ) ))
(assert ( and ( = main_i 0 ) ( = main_j 0 ) ( <= ( + Nl2CT1 ( * ( + 0 Nl2main_i1 ) main_i ) ( * ( + 0 Nl2main_j1 ) main_j ) ) 0 ) ( <= ( + ( - 1 ) ( * ( - 1 ) main_i ) main_j ) 0 ) ( <= ( + ( - 1 ) main_i ( * ( - 1 ) main_j ) ) 0 ) ))
(assert ( or ( and ( and ( and ( >= lam8n0 0 ) ( >= lam8n1 0 ) ( >= lam8n2 0 ) ( >= lam8n4 0 ) ( > ( + ( * 50001 lam8n0 ) ( * 50001 lam8n1 ) ( * 50001 lam8n2 ) ( * Nl2CT1 lam8n4 ) ( - 1 ( - ( + ( + RFN1_CT ( * RFN1_main_i 1 ) ) ( * RFN1_main_j 2 ) ) RFN1_CT ) ) ) 0 ) ( = ( + ( * ( - 1 ) lam8n0 ) ( * ( - 1 ) lam8n1 ) ( * 1 lam8n3 ) ( * Nl2main_i1 lam8n4 ) ( - ( - ( + 0 ( * RFN1_main_i 1 ) ) RFN1_main_i ) ) ) 0 ) ( = ( + ( * ( - 1 ) lam8n1 ) ( * ( - 1 ) lam8n2 ) ( * ( - 1 ) lam8n3 ) ( * Nl2main_j1 lam8n4 ) ( - ( - ( + 0 ( * RFN1_main_j 1 ) ) RFN1_main_j ) ) ) 0 ) ) ( and ( >= lam12n0 0 ) ( >= lam12n1 0 ) ( >= lam12n2 0 ) ( >= lam12n4 0 ) ( > ( + ( * 50001 lam12n0 ) ( * 50001 lam12n1 ) ( * 50001 lam12n2 ) ( * 1 lam12n3 ) ( * Nl2CT1 lam12n4 ) ( - 1 ( - ( + RFN1_CT ( * RFN1_main_i 1 ) ) RFN1_CT ) ) ) 0 ) ( = ( + ( * ( - 1 ) lam12n0 ) ( * ( - 1 ) lam12n1 ) ( * ( - 2 ) lam12n2 ) ( * 1 lam12n3 ) ( * Nl2main_i1 lam12n4 ) ( - ( - ( + 0 ( * RFN1_main_i 1 ) ) RFN1_main_i ) ) ) 0 ) ( = ( + ( * ( - 1 ) lam12n1 ) ( * 1 lam12n2 ) ( * ( - 1 ) lam12n3 ) ( * Nl2main_j1 lam12n4 ) ( - ( - ( + 0 RFN1_main_j ) RFN1_main_j ) ) ) 0 ) ) ) ( or ( and ( and ( >= lam6n0 0 ) ( >= lam6n1 0 ) ( >= lam6n2 0 ) ( >= lam6n4 0 ) ( > ( + ( * 50001 lam6n0 ) ( * 50001 lam6n1 ) ( * 50001 lam6n2 ) ( * Nl2CT1 lam6n4 ) ( - 1 ( - RFN1_CT ) ) ) 0 ) ( = ( + ( * ( - 1 ) lam6n0 ) ( * ( - 1 ) lam6n1 ) ( * 1 lam6n3 ) ( * Nl2main_i1 lam6n4 ) ( - ( - RFN1_main_i ) ) ) 0 ) ( = ( + ( * ( - 1 ) lam6n1 ) ( * ( - 1 ) lam6n2 ) ( * ( - 1 ) lam6n3 ) ( * Nl2main_j1 lam6n4 ) ( - ( - RFN1_main_j ) ) ) 0 ) ) ( and ( >= lam7n0 0 ) ( >= lam7n1 0 ) ( >= lam7n2 0 ) ( >= lam7n4 0 ) ( > ( + ( * 50001 lam7n0 ) ( * 50001 lam7n1 ) ( * 50001 lam7n2 ) ( * Nl2CT1 lam7n4 ) ( - 1 ( + ( - ( + ( + RFN1_CT ( * RFN1_main_i 1 ) ) ( * RFN1_main_j 2 ) ) RFN1_CT ) 1 ) ) ) 0 ) ( = ( + ( * ( - 1 ) lam7n0 ) ( * ( - 1 ) lam7n1 ) ( * 1 lam7n3 ) ( * Nl2main_i1 lam7n4 ) ( - ( - ( + 0 ( * RFN1_main_i 1 ) ) RFN1_main_i ) ) ) 0 ) ( = ( + ( * ( - 1 ) lam7n1 ) ( * ( - 1 ) lam7n2 ) ( * ( - 1 ) lam7n3 ) ( * Nl2main_j1 lam7n4 ) ( - ( - ( + 0 ( * RFN1_main_j 1 ) ) RFN1_main_j ) ) ) 0 ) ) ) ( and ( and ( >= lam10n0 0 ) ( >= lam10n1 0 ) ( >= lam10n2 0 ) ( >= lam10n4 0 ) ( > ( + ( * 50001 lam10n0 ) ( * 50001 lam10n1 ) ( * 50001 lam10n2 ) ( * 1 lam10n3 ) ( * Nl2CT1 lam10n4 ) ( - 1 ( - RFN1_CT ) ) ) 0 ) ( = ( + ( * ( - 1 ) lam10n0 ) ( * ( - 1 ) lam10n1 ) ( * ( - 2 ) lam10n2 ) ( * 1 lam10n3 ) ( * Nl2main_i1 lam10n4 ) ( - ( - RFN1_main_i ) ) ) 0 ) ( = ( + ( * ( - 1 ) lam10n1 ) ( * 1 lam10n2 ) ( * ( - 1 ) lam10n3 ) ( * Nl2main_j1 lam10n4 ) ( - ( - RFN1_main_j ) ) ) 0 ) ) ( and ( >= lam11n0 0 ) ( >= lam11n1 0 ) ( >= lam11n2 0 ) ( >= lam11n4 0 ) ( > ( + ( * 50001 lam11n0 ) ( * 50001 lam11n1 ) ( * 50001 lam11n2 ) ( * 1 lam11n3 ) ( * Nl2CT1 lam11n4 ) ( - 1 ( + ( - ( + RFN1_CT ( * RFN1_main_i 1 ) ) RFN1_CT ) 1 ) ) ) 0 ) ( = ( + ( * ( - 1 ) lam11n0 ) ( * ( - 1 ) lam11n1 ) ( * ( - 2 ) lam11n2 ) ( * 1 lam11n3 ) ( * Nl2main_i1 lam11n4 ) ( - ( - ( + 0 ( * RFN1_main_i 1 ) ) RFN1_main_i ) ) ) 0 ) ( = ( + ( * ( - 1 ) lam11n1 ) ( * 1 lam11n2 ) ( * ( - 1 ) lam11n3 ) ( * Nl2main_j1 lam11n4 ) ( - ( - ( + 0 RFN1_main_j ) RFN1_main_j ) ) ) 0 ) ) ) ) ) ( or ( and ( >= lam5n0 0 ) ( >= lam5n1 0 ) ( >= lam5n2 0 ) ( >= lam5n4 0 ) ( > ( + ( * 50001 lam5n0 ) ( * 50001 lam5n1 ) ( * 50001 lam5n2 ) ( * Nl2CT1 lam5n4 ) ( - 1 ) ) 0 ) ( = ( + ( * ( - 1 ) lam5n0 ) ( * ( - 1 ) lam5n1 ) ( * 1 lam5n3 ) ( * Nl2main_i1 lam5n4 ) ) 0 ) ( = ( + ( * ( - 1 ) lam5n1 ) ( * ( - 1 ) lam5n2 ) ( * ( - 1 ) lam5n3 ) ( * Nl2main_j1 lam5n4 ) ) 0 ) ) ( and ( >= lam9n0 0 ) ( >= lam9n1 0 ) ( >= lam9n2 0 ) ( >= lam9n4 0 ) ( > ( + ( * 50001 lam9n0 ) ( * 50001 lam9n1 ) ( * 50001 lam9n2 ) ( * 1 lam9n3 ) ( * Nl2CT1 lam9n4 ) ( - 1 ) ) 0 ) ( = ( + ( * ( - 1 ) lam9n0 ) ( * ( - 1 ) lam9n1 ) ( * ( - 2 ) lam9n2 ) ( * 1 lam9n3 ) ( * Nl2main_i1 lam9n4 ) ) 0 ) ( = ( + ( * ( - 1 ) lam9n1 ) ( * 1 lam9n2 ) ( * ( - 1 ) lam9n3 ) ( * Nl2main_j1 lam9n4 ) ) 0 ) ) ) ))
(check-sat)
(exit)
